22
51 87 61 65 103 104
97 72 105 15 81 117
45 46 59 49 52
78 60 118 56 63 77
68 69 114 79 91 47
99 84 76 90 37 94
110 50 33 80 112 102
73 41 66 109 74 111
32 30 31 25 29
120 38 88 115 54 55
119 95 4 106 67 93
12 11 9 6 8
100 86 57 92 98 40
14 13 18 10 17
1 2 5 3 7
22 16 19 20 21
96 89 48 101 64 75
44 113 107 62 58 85
82 53 108 42 116 70
39 35 43 34 36
83 71
27 24 28 23 26
